(declare-sort MLBol)  (declare-sort MLNat)  (declare-sort MLSeq)  (declare-sort MLMap)  (declare-fun zero ( MLNat) Bool) (declare-fun succ (MLNat MLNat) Bool) (declare-fun plus (MLNat MLNat MLNat) Bool) (assert (forall (($ MLNat)) (exists ((T MLNat)) (forall (($4 MLNat)) (= (zero $4) (= $4 T)))))) (assert (forall (($ MLNat)) (forall ((M MLNat)) (exists ((T MLNat)) (forall (($8 MLNat)) (= (exists (($9 MLNat)) (and (succ $9 $8) (= $9 M))) (= $8 T))))))) (assert (forall (($ MLNat)) (forall ((M MLNat)) (forall ((N MLNat)) (exists ((T MLNat)) (forall (($10 MLNat)) (= (exists (($14 MLNat)) (exists (($15 MLNat)) (and (and (plus $14 $15 $10) (= $15 N)) (= $14 M)))) (= $10 T)))))))) (assert (forall (($ MLNat)) (forall ((M MLNat)) (forall ((N MLNat)) (forall (($11 MLNat)) (= (exists (($16 MLNat)) (exists (($17 MLNat)) (and (and (plus $16 $17 $11) (= $17 N)) (= $16 M)))) (exists (($18 MLNat)) (exists (($19 MLNat)) (and (and (plus $18 $19 $11) (= $19 M)) (= $18 N)))))))))) (assert (forall (($ MLNat)) (forall ((M MLNat)) (forall (($12 MLNat)) (= (exists (($20 MLNat)) (exists (($21 MLNat)) (and (and (plus $20 $21 $12) (zero $20)) (= $21 M)))) (= $12 M)))))) (assert (forall (($ MLNat)) (forall ((M MLNat)) (forall ((N MLNat)) (forall (($13 MLNat)) (= (exists (($22 MLNat)) (exists (($23 MLNat)) (and (and (plus $22 $23 $13) (exists (($27 MLNat)) (and (succ $27 $22) (= $27 M)))) (= $23 N)))) (exists (($24 MLNat)) (and (succ $24 $13) (exists (($25 MLNat)) (exists (($26 MLNat)) (and (and (plus $25 $26 $24) (= $26 N)) (= $25 M)))))))))))) (assert (not (forall (($ MLNat)) (forall (($0 MLNat)) (= (exists (($1 MLNat)) (exists (($2 MLNat)) (and (and (plus $1 $2 $0) (exists (($7 MLNat)) (and (succ $7 $2) (zero $7)))) (exists (($6 MLNat)) (and (succ $6 $1) (zero $6)))))) (exists (($3 MLNat)) (and (succ $3 $0) (exists (($5 MLNat)) (and (succ $5 $3) (zero $5))))))))))
(check-sat)
